6

0   18   21   9   2   17
18   0   23   11   5   20
21   23   0   0   22   17
9   11   0   0   19   0
2   5   22   19   0   12
17   20   17   0   12   0

0   45   52   38   42   31
45   0   31   11   23   14
52   31   0   42   10   31
38   11   42   0   34   11
42   23   10   34   0   23
31   14   31   11   23   0